NAME : eil101.tsp
COMMENT : Optimal tour for eil101.tsp
TYPE : TOUR
DIMENSION : 101
Total Length: 711.176929040443
TOUR_SECTION
1
69
52
18
89
6
94
13
2
57
42
15
43
14
38
44
91
100
85
98
37
87
97
95
92
59
96
99
93
61
16
86
17
84
5
60
83
45
8
46
47
36
49
64
11
63
90
32
10
62
19
48
82
7
88
31
70
30
20
66
65
71
35
34
78
81
9
51
50
76
33
79
3
77
68
29
24
80
12
26
28
27
101
53
58
40
21
73
74
72
4
54
55
25
39
67
23
56
75
22
41
-1
EOF
